
Gurobi 6.0.4 (win64) logging started 06/20/15 12:41:23

Read LP format model from file C:\MT\repository\VRPTWMS\instances\mip\fuel\N10-C_DV100-C_SV30_F6_6_No_1.lp
Reading time = 0.01 seconds
(null): 621 rows, 298 columns, 2643 nonzeros
Optimize a model with 621 rows, 298 columns and 2643 nonzeros
Model has 1100 quadratic constraints
Coefficient statistics:
  Matrix range    [1e+00, 1e+06]
  Objective range [2e+04, 1e+07]
  Bounds range    [1e+00, 1e+06]
  RHS range       [1e+00, 1e+06]
Presolve removed 49 rows and 28 columns
Presolve time: 0.47s
Presolved: 2470 rows, 1258 columns, 12458 nonzeros
Variable types: 910 continuous, 348 integer (295 binary)
Found heuristic solution: objective 1.040340e+08

Root relaxation: objective 1.496260e+06, 193 iterations, 0.00 seconds

    Nodes    |    Current Node    |     Objective Bounds      |     Work
 Expl Unexpl |  Obj  Depth IntInf | Incumbent    BestBd   Gap | It/Node Time

     0     0 1496259.91    0   35 1.0403e+08 1496259.91  98.6%     -    0s
H    0     0                    4.217360e+07 1496259.91  96.5%     -    0s
     0     0 1.0842e+07    0   48 4.2174e+07 1.0842e+07  74.3%     -    0s
     0     0 1.0942e+07    0   53 4.2174e+07 1.0942e+07  74.1%     -    0s
H    0     0                    3.176870e+07 1.0942e+07  65.6%     -    0s
     0     0 1.1024e+07    0   45 3.1769e+07 1.1024e+07  65.3%     -    0s
     0     0 1.1024e+07    0   46 3.1769e+07 1.1024e+07  65.3%     -    0s
     0     0 1.1024e+07    0   45 3.1769e+07 1.1024e+07  65.3%     -    0s
     0     0 1.1024e+07    0   39 3.1769e+07 1.1024e+07  65.3%     -    0s
H    0     0                    3.174610e+07 1.1024e+07  65.3%     -    0s
     0     2 1.1024e+07    0   35 3.1746e+07 1.1024e+07  65.3%     -    0s
H  267   174                    3.172840e+07 1.1220e+07  64.6%  27.1    1s
   761   430 1.4785e+07   20   97 3.1728e+07 1.1652e+07  63.3%  28.3    5s
  1798   526 2.7835e+07   35   22 3.1728e+07 1.1996e+07  62.2%  56.6   10s
  2766   656 2.1856e+07   35   47 3.1728e+07 1.2221e+07  61.5%  62.0   15s
  3794   862 2.2001e+07   29   10 3.1728e+07 1.3790e+07  56.5%  66.3   20s
  5173  1091 infeasible   38      3.1728e+07 1.5646e+07  50.7%  68.5   25s
  6495  1169 2.3458e+07   47   15 3.1728e+07 1.7786e+07  43.9%  71.7   30s
  7850  1311 2.6707e+07   35   42 3.1728e+07 2.1713e+07  31.6%  72.3   35s
  9051  1423     cutoff   37      3.1728e+07 2.1916e+07  30.9%  73.4   40s
 10124  1501 2.2522e+07   32   30 3.1728e+07 2.1980e+07  30.7%  74.5   45s
 11218  1558 infeasible   47      3.1728e+07 2.2084e+07  30.4%  76.1   50s
 12332  1602 2.2302e+07   30    5 3.1728e+07 2.2199e+07  30.0%  77.3   55s
 13121  1678 2.3262e+07   40   40 3.1728e+07 2.2263e+07  29.8%  78.2   60s
 14301  1763 2.2927e+07   40   28 3.1728e+07 2.2367e+07  29.5%  79.6   65s
 14682  1770 2.2409e+07   29   32 3.1728e+07 2.2388e+07  29.4%  80.1   72s
 15431  1832 infeasible   30      3.1728e+07 2.2428e+07  29.3%  81.0   75s
 16529  1847     cutoff   42      3.1728e+07 2.2492e+07  29.1%  82.4   80s
 17618  1797 infeasible   43      3.1728e+07 2.2583e+07  28.8%  84.2   85s
 18696  1803 infeasible   42      3.1728e+07 2.2666e+07  28.6%  85.2   90s
 19674  1728 2.2958e+07   44   18 3.1728e+07 2.2752e+07  28.3%  86.5   95s
 20515  1612 2.3756e+07   42   19 3.1728e+07 2.2838e+07  28.0%  87.7  100s
 21651  1450 infeasible   49      3.1728e+07 2.2956e+07  27.6%  88.9  105s
 22605  1281 2.3092e+07   39   32 3.1728e+07 2.3063e+07  27.3%  89.9  110s
 23627  1029 infeasible   47      3.1728e+07 2.3214e+07  26.8%  91.2  115s
 24561   699     cutoff   47      3.1728e+07 2.3435e+07  26.1%  92.6  120s
 25472   256     cutoff   49      3.1728e+07 2.3929e+07  24.6%  94.1  125s

Cutting planes:
  Learned: 18
  Gomory: 16
  Cover: 371
  Implied bound: 333
  Clique: 10
  MIR: 62
  Flow cover: 212
  GUB cover: 8
  Zero half: 42

Explored 26032 nodes (2455486 simplex iterations) in 127.48 seconds
Thread count was 2 (of 4 available processors)

Optimal solution found (tolerance 1.00e-04)
Best objective 3.172840000000e+07, best bound 3.172840000000e+07, gap 0.0%
k_c1	970000.0
k_c10	970000.0
k_c2	920000.0
k_c3	40000.0
k_c4	1000000.0
k_c5	1000000.0
k_c6	959999.0
k_c7	889998.0
k_c8	919999.0
k_c9	879998.0
k_dN	-0.0
o_1	0.0
o_10	0.0
o_2	0.0
o_3	0.0
o_4	0.0
o_5	0.0
o_6	0.0
o_7	0.0
o_8	0.0
o_9	0.0
p_1	0.0
p_10	0.0
p_2	0.0
p_3	0.0
p_4	0.0
p_5	0.0
p_6	0.0
p_7	0.0
p_8	0.0
p_9	0.0
phi_c1	41736.0
phi_c10	28784.0
phi_c2	26028.0
phi_c3	18585.0
phi_c4	43830.0
phi_c5	49791.0
phi_c6	18846.0
phi_c7	14116.0
phi_c8	36637.0
phi_c9	33224.0
phi_dN	0.0
pi_c1	0.0
pi_c10	254115.0
pi_c2	254115.0
pi_c3	254115.0
pi_c4	254115.0
pi_c5	0.0
pi_c6	254115.0
pi_c7	0.0
pi_c8	0.0
pi_c9	0.0
pi_dN	-0.0
tauD_c1	500000.0
tauD_c10	500000.0
tauD_c2	580300.0
tauD_c3	675302.0
tauD_c4	605374.0
tauD_c5	200000.0
tauD_c6	700000.0
tauD_c7	777675.0
tauD_c8	700000.0
tauD_c9	898950.0
tauD_d0	-0.0
tauD_dN	1000000.0
tauS_c1	902325.0
tauS_c10	846975.0
tauS_c2	854800.0
tauS_c3	850550.0
tauS_c4	859575.0
tauS_c5	881850.0
tauS_c6	854575.0
tauS_c7	867250.0
tauS_c8	883600.0
tauS_c9	894250.0
tauS_d0	-0.0
tauS_dN	1000000.0
x_c10_c2	1.0
x_c1_c8	1.0
x_c2_c3	1.0
x_c3_dN	1.0
x_c4_c6	1.0
x_c5_c10	1.0
x_c6_c7	1.0
x_c7_dN	1.0
x_c8_c9	1.0
x_c9_dN	1.0
x_d0_c1	1.0
x_d0_c4	1.0
x_d0_c5	1.0
